proyfinal/src/viki/013/andrea/andrea-localstore/experimentInOfficeAgust.take6/worker_1/3a198b40-4a99-4179-a3f8-9db59ad70a6f.als.cnf.out
Reading from standard input... Use '--help' for help.
============================[ Problem Statistics ]=============================
|                                                                             |
|  Number of variables:         87638                                         |
|  Number of clauses:          161767                                         |
|  Parse time:                   0.04 s                                       |
|                                                                             |
============================[ Search Statistics ]==============================
| Conflicts |          ORIGINAL         |          LEARNT          | Progress |
|           |    Vars  Clauses Literals |    Limit  Clauses Lit/Cl |          |
===============================================================================
|       100 |   63955   110790   276792 |    40623      100     14 | 27.024 % |
|       250 |   55225    84763   212682 |    44685      247     21 | 36.985 % |
|       475 |   55224    84719   212592 |    49153      471     31 | 36.986 % |
|       812 |   55208    84659   212454 |    54069      807     33 | 37.004 % |
|      1318 |   55208    84659   212454 |    59476     1313     38 | 37.004 % |
|      2077 |   54816    83248   208987 |    65423     1984     48 | 37.452 % |
|      3216 |   54526    82336   206601 |    71966     3078     60 | 37.783 % |
|      4924 |   54494    82179   206234 |    79162     4779     65 | 37.819 % |
|      7486 |   54440    82141   206156 |    87079     7335     64 | 37.881 % |
|     11330 |   54401    81815   205371 |    95786    11171     65 | 37.925 % |
|     17096 |   54375    81680   205075 |   105365    15497     67 | 37.955 % |
===============================================================================
restarts              : 76
conflicts             : 21231          (7371 /sec)
decisions             : 72541          (0.00 % random) (25186 /sec)
propagations          : 30477802       (10581703 /sec)
conflict literals     : 1475171        (48.21 % deleted)
Memory used           : 43.00 MB
CPU time              : 2.88024 s

INDETERMINATE
